0 10309 6614 2705 8165 10185 1663 2046 5301 10844 101 4605
10309 0 2707 2437 6034 8513 5607 1973 2638 10357 1261 2060
6614 2707 0 363 2274 1324 6604 8291 5669 11762 5732 1591
2705 2437 363 0 7398 2417 10750 10424 7373 7833 11170 4565
8165 6034 2274 7398 0 11337 2126 11731 7288 5971 10553 3929
10185 8513 1324 2417 11337 0 1813 408 3493 6882 80 6016
1663 5607 6604 10750 2126 1813 0 4330 610 5825 1248 6698
2046 1973 8291 10424 11731 408 4330 0 4864 2777 3255 12335
5301 2638 5669 7373 7288 3493 610 4864 0 880 11302 675
10844 10357 11762 7833 5971 6882 5825 2777 880 0 2462 1380
101 1261 5732 11170 10553 80 1248 3255 11302 2462 0 2635
4605 2060 1591 4565 3929 6016 6698 12335 675 1380 2635 0
